400
400
279
279
278
278
277
277
276
276
275
275
275
275
275
274
273
272
272
271
270
268
267
266
265
265
265
265
264
264
264
263
262
262
261
260
260
259
259
258
257
257
256
256
256
255
255
255
255
254
254
254
252
252
251
251
249
249
249
248
248
248
247
247
246
246
246
245
245
245
244
244
243
243
242
242
240
240
240
240
240
239
239
239
239
238
237
237
237
236
236
236
236
234
234
233
233
232
231
231
230
230
229
229
229
229
229
228
228
227
226
225
225
223
223
223
223
222
221
221
221
221
220
219
219
219
219
218
218
218
218
218
218
217
216
216
216
216
215
215
215
214
214
214
214
214
213
213
213
212
212
211
209
208
208
208
208
208
207
206
206
205
204
203
203
203
202
202
202
202
201
201
200
200
200
200
197
197
196
194
194
193
193
192
192
192
192
191
191
190
190
190
190
189
188
188
188
188
187
187
185
185
184
184
183
183
182
180
180
180
179
177
177
175
175
174
173
172
172
171
171
170
169
169
168
168
168
167
166
166
165
165
165
164
164
164
164
163
162
161
160
160
159
159
159
158
158
156
156
156
156
155
155
155
154
153
153
152
152
151
151
150
149
149
149
149
148
148
147
146
144
143
142
142
142
141
141
140
139
139
139
139
139
138
137
137
137
136
136
135
135
135
135
135
134
133
133
133
132
132
132
131
131
131
131
130
129
129
128
128
127
126
126
126
126
124
124
123
122
121
121
121
120
117
116
116
116
115
114
114
113
113
113
112
112
112
111
111
111
110
110
109
109
108
108
108
107
107
106
106
105
104
104
104
103
103
102
102
101
101
101
101
101
100
99
96
95
95
95
95
93
93
93
93
93
89
89
89
88
88
88
88
88
87
87
87
85
85
85
84
84
84
84
84
84
83
82
81
81
81
80
80
